21180.3
21180.3
20496.2
20496.2
20496.2
20496.2
20317.6
20317.6
19892.3
19401.6
19195.5
19195.5
19195.5
19195.5
18938.7
18938.7
18938.7
18938.7
18453
18453
18453
18181.2
18181.2
18181.2
18181.2
18181.2
18176.6
18176.6
18176.6
18126.3
17945.8
17945.8
17251.5
17240
17240
17240
17228.1
17196.9
17095.3
17095.3
17095.3
17095.3
16995.3
16662.4
16662.4
16662.4
16512
16512
16512
16512
16512
16512
16410.3
16410.3
16410.3
16403.7
16312.3
16312.3
16312.3
16312.3
16312.3
16312.3
16307.2
16307.2
16307.2
16307.2
16286.4
15821.5
15821.5
15821.5
15821.5
15821.5
15821.5
15785.5
15785.5
15707.1
15528.3
15528.3
15528.3
15528.3
15528.3
15528.3
15528.3
15528.3
15200.3
15200.3
15200.3
15200.3
15056.7
15056.7
15056.7
15056.7
15056.7
15056.7
15056.7
15056.7
15056.7
14907.5
14907.5
14907.5
